245 5
10 10 10 10 10 

0 0 0 0 0 0 1 2 
0 0 0 0 0 0 1 3 
9 0 4 0 0 0 3 8 5 4 
10 0 9 0 0 0 2 7 6 
8 0 8 0 0 0 1 6 
9 0 7 0 0 0 1 9 
6 0 8 0 0 0 1 9 
9 0 9 0 0 0 1 9 
8 0 10 0 0 0 1 10 
1 0 5 0 0 0 1 11 
8 0 6 0 0 0 1 12 
7 0 9 0 0 0 1 13 
0 0 0 0 0 0 4 14 26 38 50 
0 0 0 0 0 0 1 15 
4 0 0 0 3 0 1 16 
9 0 0 0 7 0 3 22 17 56 
3 0 0 0 7 0 2 20 18 
1 0 0 0 8 0 2 24 19 
9 0 0 0 8 0 1 21 
1 0 0 0 10 0 1 21 
10 0 0 0 10 0 1 23 
2 0 0 0 8 0 1 24 
5 0 0 0 7 0 1 25 
1 0 0 0 7 0 1 25 
0 0 0 0 0 0 1 62 
0 0 0 0 0 0 1 27 
8 4 0 0 0 0 1 28 
7 9 0 0 0 0 2 31 29 
2 10 0 0 0 0 1 30 
5 5 0 0 0 0 2 33 32 
8 7 0 0 0 0 2 33 32 
9 7 0 0 0 0 3 36 35 188 
7 10 0 0 0 0 1 34 
6 10 0 0 0 0 1 35 
5 5 0 0 0 0 1 37 
2 8 0 0 0 0 1 37 
0 0 0 0 0 0 1 62 
0 0 0 0 0 0 2 39 41 
8 0 0 0 0 6 2 44 40 
3 0 0 0 0 6 2 48 42 
4 0 0 0 0 8 2 48 45 
1 0 0 0 0 8 1 43 
2 0 0 0 0 9 1 45 
2 0 0 0 0 7 1 45 
2 0 0 0 0 6 1 46 
8 0 0 0 0 6 1 47 
1 0 0 0 0 10 2 49 118 
5 0 0 0 0 9 1 49 
0 0 0 0 0 0 1 62 
0 0 0 0 0 0 2 51 205 
7 0 0 0 2 0 2 53 52 
7 0 0 0 9 0 2 59 54 
6 0 0 0 8 0 2 56 55 
2 0 0 0 10 0 1 55 
5 0 0 0 8 0 1 57 
3 0 0 0 6 0 1 57 
4 0 0 0 7 0 1 58 
5 0 0 0 6 0 1 60 
1 0 0 0 10 0 1 60 
4 0 0 0 9 0 1 61 
0 0 0 0 0 0 1 62 
0 0 0 0 0 0 5 63 75 87 99 111 
0 0 0 0 0 0 3 64 73 83 
2 1 0 0 0 0 1 65 
10 8 0 0 0 0 1 66 
5 5 0 0 0 0 2 69 67 
7 10 0 0 0 0 1 68 
4 6 0 0 0 0 2 72 70 
4 8 0 0 0 0 2 72 70 
1 10 0 0 0 0 1 71 
7 10 0 0 0 0 1 74 
7 10 0 0 0 0 1 74 
3 7 0 0 0 0 1 74 
0 0 0 0 0 0 1 123 
0 0 0 0 0 0 1 76 
9 0 0 4 0 0 2 80 77 
6 0 0 5 0 0 1 78 
8 0 0 10 0 0 1 79 
6 0 0 8 0 0 3 85 84 81 
10 0 0 6 0 0 2 85 84 
7 0 0 10 0 0 2 82 216 
1 0 0 10 0 0 1 83 
4 0 0 7 0 0 1 86 
3 0 0 10 0 0 1 86 
2 0 0 5 0 0 1 86 
0 0 0 0 0 0 1 123 
0 0 0 0 0 0 3 88 94 95 
9 0 1 0 0 0 2 97 89 
4 0 10 0 0 0 1 90 
2 0 8 0 0 0 1 91 
1 0 9 0 0 0 2 92 139 
6 0 7 0 0 0 1 93 
9 0 7 0 0 0 1 96 
9 0 9 0 0 0 1 96 
6 0 9 0 0 0 1 96 
8 0 6 0 0 0 1 98 
7 0 9 0 0 0 1 98 
0 0 0 0 0 0 1 123 
0 0 0 0 0 0 2 100 106 
9 4 0 0 0 0 2 105 101 
5 3 0 0 0 0 1 102 
5 7 0 0 0 0 2 109 103 
9 6 0 0 0 0 2 104 227 
1 7 0 0 0 0 1 107 
9 10 0 0 0 0 1 107 
7 8 0 0 0 0 1 107 
8 10 0 0 0 0 1 108 
9 10 0 0 0 0 1 110 
10 10 0 0 0 0 1 110 
0 0 0 0 0 0 1 123 
0 0 0 0 0 0 1 112 
8 0 7 0 0 0 1 113 
8 0 4 0 0 0 2 114 238 
5 0 10 0 0 0 2 118 115 
7 0 7 0 0 0 3 121 120 116 
5 0 10 0 0 0 1 117 
8 0 8 0 0 0 1 119 
4 0 4 0 0 0 1 120 
6 0 10 0 0 0 1 122 
9 0 10 0 0 0 1 122 
1 0 5 0 0 0 1 122 
0 0 0 0 0 0 1 123 
0 0 0 0 0 0 5 124 136 148 160 172 
0 0 0 0 0 0 2 125 129 
6 0 0 3 0 0 1 126 
10 0 0 3 0 0 2 132 127 
3 0 0 10 0 0 1 128 
8 0 0 8 0 0 1 130 
5 0 0 10 0 0 1 130 
6 0 0 10 0 0 2 134 131 
8 0 0 10 0 0 1 133 
8 0 0 7 0 0 1 133 
4 0 0 6 0 0 2 135 139 
1 0 0 8 0 0 1 135 
0 0 0 0 0 0 1 184 
0 0 0 0 0 0 2 137 143 
9 0 0 8 0 0 2 146 138 
4 0 0 4 0 0 1 139 
9 0 0 4 0 0 1 140 
4 0 0 9 0 0 1 141 
5 0 0 7 0 0 2 145 142 
2 0 0 10 0 0 1 144 
2 0 0 7 0 0 1 144 
3 0 0 10 0 0 1 147 
5 0 0 6 0 0 2 147 174 
8 0 0 10 0 0 1 147 
0 0 0 0 0 0 1 184 
0 0 0 0 0 0 2 149 150 
1 0 0 0 3 0 2 152 151 
6 0 0 0 10 0 2 152 151 
4 0 0 0 5 0 1 153 
4 0 0 0 7 0 1 153 
6 0 0 0 6 0 1 154 
5 0 0 0 7 0 1 155 
9 0 0 0 10 0 2 157 156 
4 0 0 0 8 0 2 158 188 
7 0 0 0 9 0 1 158 
1 0 0 0 10 0 1 159 
0 0 0 0 0 0 1 184 
0 0 0 0 0 0 1 161 
7 0 5 0 0 0 2 166 162 
7 0 4 0 0 0 1 163 
1 0 7 0 0 0 1 164 
3 0 8 0 0 0 3 168 165 235 
2 0 9 0 0 0 2 169 167 
8 0 6 0 0 0 2 170 169 
10 0 10 0 0 0 1 170 
4 0 6 0 0 0 1 169 
4 0 10 0 0 0 1 171 
9 0 10 0 0 0 1 171 
0 0 0 0 0 0 1 184 
0 0 0 0 0 0 2 173 179 
2 0 0 0 0 6 2 181 174 
4 0 0 0 0 6 2 182 175 
3 0 0 0 0 10 1 176 
5 0 0 0 0 9 1 177 
3 0 0 0 0 10 2 178 224 
2 0 0 0 0 8 1 180 
3 0 0 0 0 7 1 181 
6 0 0 0 0 9 1 183 
1 0 0 0 0 7 1 183 
1 0 0 0 0 3 1 183 
0 0 0 0 0 0 1 184 
0 0 0 0 0 0 5 185 197 209 221 233 
0 0 0 0 0 0 1 186 
2 3 0 0 0 0 2 195 187 
8 5 0 0 0 0 2 194 188 
6 8 0 0 0 0 1 189 
5 10 0 0 0 0 1 190 
3 10 0 0 0 0 2 193 191 
5 5 0 0 0 0 1 192 
2 7 0 0 0 0 1 196 
10 7 0 0 0 0 1 196 
5 10 0 0 0 0 2 196 228 
4 10 0 0 0 0 1 196 
0 0 0 0 0 0 1 245 
0 0 0 0 0 0 2 198 200 
4 0 0 0 4 0 2 203 199 
9 0 0 0 5 0 1 201 
5 0 0 0 6 0 1 201 
3 0 0 0 10 0 2 207 202 
3 0 0 0 10 0 2 204 218 
9 0 0 0 4 0 2 207 206 
6 0 0 0 10 0 1 205 
10 0 0 0 10 0 1 206 
2 0 0 0 10 0 1 208 
2 0 0 0 6 0 1 208 
0 0 0 0 0 0 1 245 
0 0 0 0 0 0 3 210 213 217 
2 0 3 0 0 0 1 211 
8 0 6 0 0 0 2 212 223 
6 0 7 0 0 0 2 216 214 
8 0 10 0 0 0 1 214 
9 0 6 0 0 0 1 215 
3 0 10 0 0 0 1 218 
7 0 10 0 0 0 1 218 
5 0 7 0 0 0 1 218 
3 0 9 0 0 0 1 219 
1 0 7 0 0 0 1 220 
0 0 0 0 0 0 1 245 
0 0 0 0 0 0 1 222 
4 3 0 0 0 0 2 224 223 
3 10 0 0 0 0 2 225 235 
4 10 0 0 0 0 1 225 
5 5 0 0 0 0 2 227 226 
5 7 0 0 0 0 1 228 
8 9 0 0 0 0 1 228 
9 10 0 0 0 0 1 229 
5 7 0 0 0 0 2 231 230 
6 6 0 0 0 0 1 232 
7 8 0 0 0 0 1 232 
0 0 0 0 0 0 1 245 
0 0 0 0 0 0 2 234 236 
1 4 0 0 0 0 1 235 
1 10 0 0 0 0 1 237 
4 7 0 0 0 0 1 237 
6 5 0 0 0 0 2 240 238 
4 10 0 0 0 0 1 239 
9 10 0 0 0 0 1 241 
2 10 0 0 0 0 1 241 
2 6 0 0 0 0 2 243 242 
8 3 0 0 0 0 1 244 
9 10 0 0 0 0 1 244 
0 0 0 0 0 0 1 245 
0 0 0 0 0 0 0 
